715880
711613
711613
704697
704697
704697
701793
701793
698276
698215
698215
698215
693314
688067
684138
684138
684138
684138
682752
681580
681580
681580
679369
679369
678361
678361
672532
672532
672532
672532
672532
672532
667648
667648
667648
667648
667648
667648
667648
667648
667648
667648
667648
667343
665166
665166
665166
665166
665166
660612
660612
660612
660612
658840
658840
658447
658447
658447
658447
658447
658447
658447
658447
658447
658447
658447
658447
655882
655319
649120
649120
649120
649120
646287
646287
646287
643627
643627
643627
643627
643627
642486
642486
642486
642486
642486
642486
642486
642486
642486
642486
642486
640174
640174
640174
640174
640174
637666
637666
637666
